Problem:    lp2
Rows:       247
Columns:    228
Non-zeros:  1104
Status:     OPTIMAL
Objective:  v = 14980.4321 (MINimum)

   No.   Row name   St   Activity     Lower bound   Upper bound    Marginal
------ ------------ -- ------------- ------------- ------------- -------------
     1 v            B        14980.4                             
     2 const1[1]    NU             0                          -0       -3.8895 
     3 const1[2]    B              0                          -0 
     4 const1[3]    NU             0                          -0     -0.200127 
     5 const1[4]    NU             0                          -0       -5.8895 
     6 const1[5]    NU             0                          -0      -2.20013 
     7 const1[6]    B              0                          -0 
     8 const1[7]    NU             0                          -0      -3.95567 
     9 const1[8]    NU             0                          -0       -3.8895 
    10 const1[9]    B              0                          -0 
    11 const1[10]   NU             0                          -0      -2.20013 
    12 const1[11]   B           -110                          -0 
    13 const1[12]   NU             0                          -0      -1.79552 
    14 const2[1]    NS            69            69             =       11.8895 
    15 const2[2]    NS            66            66             =       10.2001 
    16 const2[3]    NS            67            67             =       13.2001 
    17 const2[4]    NS            66            66             =       11.8895 
    18 const2[5]    NS            78            78             =       13.8895 
    19 const2[6]    NS            93            93             =       10.7955 
    20 const2[7]    NS            73            73             =        16.532 
    21 const2[8]    NS            75            75             =        13.003 
    22 const2[9]    NS            98            98             =       11.8895 
    23 const2[10]   NS            86            86             =       8.20013 
    24 const2[11]   NS            98            98             =       12.8895 
    25 const2[12]   NS            65            65             =       10.2001 
    26 const2[13]   NS            99            99             =             8 
    27 const2[14]   NS            62            62             =       7.59366 
    28 const2[15]   NS            71            71             =       11.8895 
    29 const2[16]   NS            99            99             =       8.20013 
    30 const2[17]   NS            65            65             =       13.8895 
    31 const2[18]   NS            94            94             =       11.7955 
    32 const3[1,1]  B       -41.2963                          -0 
    33 const3[1,2]  B            -66                          -0 
    34 const3[1,3]  B            -67                          -0 
    35 const3[1,4]  NU             0                          -0            -1 
    36 const3[1,5]  B       -69.0405                          -0 
    37 const3[1,6]  B            -93                          -0 
    38 const3[1,7]  NU             0                          -0      -1.64255 
    39 const3[1,8]  B            -75                          -0 
    40 const3[1,9]  B            -98                          -0 
    41 const3[1,10] B            -86                          -0 
    42 const3[1,11] B       -54.6631                          -0 
    43 const3[1,12] B            -65                          -0 
    44 const3[1,13] B            -99                          -0 
    45 const3[1,14] B            -62                          -0 
    46 const3[1,15] B            -71                          -0 
    47 const3[1,16] B            -99                          -0 
    48 const3[1,17] B            -65                          -0 
    49 const3[1,18] B            -94                          -0 
    50 const3[2,1]  B              0                          -0 
    51 const3[2,2]  NU             0                          -0      -3.20013 
    52 const3[2,3]  B              0                          -0 
    53 const3[2,4]  B              0                          -0 
    54 const3[2,5]  B              0                          -0 
    55 const3[2,6]  B              0                          -0 
    56 const3[2,7]  B              0                          -0 
    57 const3[2,8]  B              0                          -0 
    58 const3[2,9]  B              0                          -0 
    59 const3[2,10] B              0                          -0 
    60 const3[2,11] B              0                          -0 
    61 const3[2,12] B              0                          -0 
    62 const3[2,13] B              0                          -0 
    63 const3[2,14] NU             0                          -0      -1.59366 
    64 const3[2,15] B              0                          -0 
    65 const3[2,16] NU             0                          -0      -3.77763 
    66 const3[2,17] B              0                          -0 
    67 const3[2,18] B              0                          -0 
    68 const3[3,1]  B            -69                          -0 
    69 const3[3,2]  NU             0                          -0            -4 
    70 const3[3,3]  B       -61.8784                          -0 
    71 const3[3,4]  B            -66                          -0 
    72 const3[3,5]  B            -78                          -0 
    73 const3[3,6]  NU             0                          -0      -3.59539 
    74 const3[3,7]  B            -73                          -0 
    75 const3[3,8]  B            -75                          -0 
    76 const3[3,9]  B            -98                          -0 
    77 const3[3,10] B       -76.1216                          -0 
    78 const3[3,11] B            -98                          -0 
    79 const3[3,12] B            -65                          -0 
    80 const3[3,13] B            -99                          -0 
    81 const3[3,14] NU             0                          -0      -1.39353 
    82 const3[3,15] B            -71                          -0 
    83 const3[3,16] B            -99                          -0 
    84 const3[3,17] B            -65                          -0 
    85 const3[3,18] B            -94                          -0 
    86 const3[4,1]  B       -34.3971                          -0 
    87 const3[4,2]  B            -66                          -0 
    88 const3[4,3]  B            -67                          -0 
    89 const3[4,4]  B            -66                          -0 
    90 const3[4,5]  B            -78                          -0 
    91 const3[4,6]  B            -93                          -0 
    92 const3[4,7]  B            -73                          -0 
    93 const3[4,8]  B            -75                          -0 
    94 const3[4,9]  B              0                          -0 
    95 const3[4,10] B            -86                          -0 
    96 const3[4,11] B            -98                          -0 
    97 const3[4,12] B            -65                          -0 
    98 const3[4,13] B            -99                          -0 
    99 const3[4,14] B            -62                          -0 
   100 const3[4,15] B       -39.6029                          -0 
   101 const3[4,16] B            -99                          -0 
   102 const3[4,17] B              0                          -0 
   103 const3[4,18] B            -94                          -0 
   104 const3[5,1]  B       -61.0743                          -0 
   105 const3[5,2]  B       -58.4189                          -0 
   106 const3[5,3]  B       -59.3041                          -0 
   107 const3[5,4]  B       -58.4189                          -0 
   108 const3[5,5]  NU             0                          -0      -1.68938 
   109 const3[5,6]  B       -82.3176                          -0 
   110 const3[5,7]  B       -64.6149                          -0 
   111 const3[5,8]  B       -66.3851                          -0 
   112 const3[5,9]  B       -86.7432                          -0 
   113 const3[5,10] NU             0                          -0            -1 
   114 const3[5,11] B       -86.7432                          -0 
   115 const3[5,12] B       -2.65541                          -0 
   116 const3[5,13] B       -87.6284                          -0 
   117 const3[5,14] B       -54.8784                          -0 
   118 const3[5,15] B       -62.8446                          -0 
   119 const3[5,16] B       -87.6284                          -0 
   120 const3[5,17] B       -57.5338                          -0 
   121 const3[5,18] B       -83.2027                          -0 
   122 const3[6,1]  NU             0                          -0       -1.8895 
   123 const3[6,2]  B              0                          -0 
   124 const3[6,3]  NU             0                          -0      -1.20013 
   125 const3[6,4]  B              0                          -0 
   126 const3[6,5]  B              0                          -0 
   127 const3[6,6]  B              0                          -0 
   128 const3[6,7]  NU             0                          -0     -0.532049 
   129 const3[6,8]  NU             0                          -0   -0.00295345 
   130 const3[6,9]  B              0                          -0 
   131 const3[6,10] B              0                          -0 
   132 const3[6,11] B              0                          -0 
   133 const3[6,12] B              0                          -0 
   134 const3[6,13] B              0                          -0 
   135 const3[6,14] B              0                          -0 
   136 const3[6,15] NU             0                          -0       -3.8895 
   137 const3[6,16] B              0                          -0 
   138 const3[6,17] B              0                          -0 
   139 const3[6,18] B              0                          -0 
   140 const3[7,1]  B              0                          -0 
   141 const3[7,2]  B              0                          -0 
   142 const3[7,3]  B              0                          -0 
   143 const3[7,4]  B              0                          -0 
   144 const3[7,5]  B              0                          -0 
   145 const3[7,6]  B              0                          -0 
   146 const3[7,7]  B              0                          -0 
   147 const3[7,8]  B              0                          -0 
   148 const3[7,9]  B              0                          -0 
   149 const3[7,10] B              0                          -0 
   150 const3[7,11] B              0                          -0 
   151 const3[7,12] B              0                          -0 
   152 const3[7,13] B              0                          -0 
   153 const3[7,14] B              0                          -0 
   154 const3[7,15] B              0                          -0 
   155 const3[7,16] B              0                          -0 
   156 const3[7,17] B              0                          -0 
   157 const3[7,18] B              0                          -0 
   158 const3[8,1]  B       -31.7939                          -0 
   159 const3[8,2]  B       -36.8139                          -0 
   160 const3[8,3]  B       -37.3717                          -0 
   161 const3[8,4]  B       -36.8139                          -0 
   162 const3[8,5]  B       -43.5074                          -0 
   163 const3[8,6]  B       -51.8742                          -0 
   164 const3[8,7]  B       -40.7185                          -0 
   165 const3[8,8]  B        -41.834                          -0 
   166 const3[8,9]  B       -54.6631                          -0 
   167 const3[8,10] B       -47.9697                          -0 
   168 const3[8,11] NU             0                          -0            -2 
   169 const3[8,12] B       -36.2562                          -0 
   170 const3[8,13] B       -55.2209                          -0 
   171 const3[8,14] B       -34.5828                          -0 
   172 const3[8,15] NU             0                          -0         < eps
   173 const3[8,16] B       -55.2209                          -0 
   174 const3[8,17] B       -36.2562                          -0 
   175 const3[8,18] B        -52.432                          -0 
   176 const3[9,1]  B              0                          -0 
   177 const3[9,2]  B              0                          -0 
   178 const3[9,3]  B              0                          -0 
   179 const3[9,4]  B              0                          -0 
   180 const3[9,5]  B              0                          -0 
   181 const3[9,6]  B              0                          -0 
   182 const3[9,7]  NU             0                          -0      -5.53205 
   183 const3[9,8]  B              0                          -0 
   184 const3[9,9]  B              0                          -0 
   185 const3[9,10] B              0                          -0 
   186 const3[9,11] B              0                          -0 
   187 const3[9,12] B              0                          -0 
   188 const3[9,13] NU             0                          -0      -4.63798 
   189 const3[9,14] B              0                          -0 
   190 const3[9,15] B              0                          -0 
   191 const3[9,16] B              0                          -0 
   192 const3[9,17] B              0                          -0 
   193 const3[9,18] B              0                          -0 
   194 const3[10,1] B            -69                          -0 
   195 const3[10,2] B            -66                          -0 
   196 const3[10,3] B       -5.12162                          -0 
   197 const3[10,4] B            -66                          -0 
   198 const3[10,5] B            -78                          -0 
   199 const3[10,6] B            -93                          -0 
   200 const3[10,7] B            -73                          -0 
   201 const3[10,8] B            -75                          -0 
   202 const3[10,9] B            -98                          -0 
   203 const3[10,10]
                    B            -86                          -0 
   204 const3[10,11]
                    B            -98                          -0 
   205 const3[10,12]
                    B       -54.8784                          -0 
   206 const3[10,13]
                    NU             0                          -0     -0.799873 
   207 const3[10,14]
                    B            -62                          -0 
   208 const3[10,15]
                    B            -71                          -0 
   209 const3[10,16]
                    B              0                          -0 
   210 const3[10,17]
                    B            -65                          -0 
   211 const3[10,18]
                    B            -94                          -0 
   212 const3[11,1] B            -69                          -0 
   213 const3[11,2] B            -66                          -0 
   214 const3[11,3] B            -67                          -0 
   215 const3[11,4] B            -66                          -0 
   216 const3[11,5] B            -78                          -0 
   217 const3[11,6] B            -93                          -0 
   218 const3[11,7] B            -73                          -0 
   219 const3[11,8] NU             0                          -0      -2.00295 
   220 const3[11,9] B            -98                          -0 
   221 const3[11,10]
                    B            -86                          -0 
   222 const3[11,11]
                    B            -98                          -0 
   223 const3[11,12]
                    B            -65                          -0 
   224 const3[11,13]
                    B            -99                          -0 
   225 const3[11,14]
                    B            -62                          -0 
   226 const3[11,15]
                    B            -71                          -0 
   227 const3[11,16]
                    B            -99                          -0 
   228 const3[11,17]
                    B            -65                          -0 
   229 const3[11,18]
                    NU             0                          -0      -4.79552 
   230 const3[12,1] B              0                          -0 
   231 const3[12,2] B              0                          -0 
   232 const3[12,3] B              0                          -0 
   233 const3[12,4] B              0                          -0 
   234 const3[12,5] B              0                          -0 
   235 const3[12,6] B              0                          -0 
   236 const3[12,7] B              0                          -0 
   237 const3[12,8] B              0                          -0 
   238 const3[12,9] NU             0                          -0      -2.09399 
   239 const3[12,10]
                    B              0                          -0 
   240 const3[12,11]
                    B              0                          -0 
   241 const3[12,12]
                    B              0                          -0 
   242 const3[12,13]
                    B              0                          -0 
   243 const3[12,14]
                    B              0                          -0 
   244 const3[12,15]
                    B              0                          -0 
   245 const3[12,16]
                    B              0                          -0 
   246 const3[12,17]
                    B              0                          -0 
   247 const3[12,18]
                    B              0                          -0 

   No. Column name  St   Activity     Lower bound   Upper bound    Marginal
------ ------------ -- ------------- ------------- ------------- -------------
     1 x[1,1]       B        27.7037             0               
     2 x[1,2]       NL             0             0                     13.6894 
     3 x[1,3]       NL             0             0                     23.6894 
     4 x[1,4]       B             66             0               
     5 x[1,5]       B        8.95946             0               
     6 x[1,6]       NL             0             0                     5.09399 
     7 x[1,7]       B             73             0               
     8 x[1,8]       NL             0             0                     4.88655 
     9 x[1,9]       NL             0             0                          19 
    10 x[1,10]      NL             0             0                     19.6894 
    11 x[1,11]      B        43.3369             0               
    12 x[1,12]      NL             0             0                     14.6894 
    13 x[1,13]      NL             0             0                     19.8895 
    14 x[1,14]      NL             0             0                     13.2958 
    15 x[1,15]      NL             0             0                          26 
    16 x[1,16]      NL             0             0                     19.6894 
    17 x[1,17]      NL             0             0                          14 
    18 x[1,18]      NL             0             0                     6.09399 
    19 x[2,1]       NL             0             0                     15.1105 
    20 x[2,2]       B              0             0               
    21 x[2,3]       NL             0             0                     21.7999 
    22 x[2,4]       NL             0             0                      4.1105 
    23 x[2,5]       NL             0             0                     19.1105 
    24 x[2,6]       NL             0             0                     14.2045 
    25 x[2,7]       NL             0             0                     5.46795 
    26 x[2,8]       NL             0             0                      11.997 
    27 x[2,9]       NL             0             0                      3.1105 
    28 x[2,10]      NL             0             0                     21.7999 
    29 x[2,11]      NL             0             0                      9.1105 
    30 x[2,12]      NL             0             0                     21.7999 
    31 x[2,13]      NL             0             0                           2 
    32 x[2,14]      B              0             0               
    33 x[2,15]      NL             0             0                      3.1105 
    34 x[2,16]      NL             0             0                     15.5775 
    35 x[2,17]      NL             0             0                     15.1105 
    36 x[2,18]      NL             0             0                     19.2045 
    37 x[3,1]       NL             0             0                     2.31062 
    38 x[3,2]       B             66             0               
    39 x[3,3]       B        5.12162             0               
    40 x[3,4]       NL             0             0                     21.3106 
    41 x[3,5]       NL             0             0                     5.31062 
    42 x[3,6]       B             93             0               
    43 x[3,7]       NL             0             0                    0.668078 
    44 x[3,8]       NL             0             0                    0.197173 
    45 x[3,9]       NL             0             0                     3.31062 
    46 x[3,10]      B        9.87838             0               
    47 x[3,11]      NL             0             0                     4.31062 
    48 x[3,12]      NL             0             0                          21 
    49 x[3,13]      NL             0             0                     17.2001 
    50 x[3,14]      B             62             0               
    51 x[3,15]      NL             0             0                     1.31062 
    52 x[3,16]      NL             0             0                           7 
    53 x[3,17]      NL             0             0                     6.31062 
    54 x[3,18]      NL             0             0                     20.4046 
    55 x[4,1]       B        34.6029             0               
    56 x[4,2]       NL             0             0                     10.6894 
    57 x[4,3]       NL             0             0                     6.68938 
    58 x[4,4]       NL             0             0                          27 
    59 x[4,5]       NL             0             0                          12 
    60 x[4,6]       NL             0             0                   0.0939869 
    61 x[4,7]       NL             0             0                     23.3575 
    62 x[4,8]       NL             0             0                     13.8865 
    63 x[4,9]       B             98             0               
    64 x[4,10]      NL             0             0                     29.6894 
    65 x[4,11]      NL             0             0                          17 
    66 x[4,12]      NL             0             0                     18.6894 
    67 x[4,13]      NL             0             0                     28.8895 
    68 x[4,14]      NL             0             0                     17.2958 
    69 x[4,15]      B        31.3971             0               
    70 x[4,16]      NL             0             0                     16.6894 
    71 x[4,17]      B             65             0               
    72 x[4,18]      NL             0             0                      24.094 
    73 x[5,1]       NL             0             0                     17.3106 
    74 x[5,2]       B              0             0               
    75 x[5,3]       NL             0             0                           7 
    76 x[5,4]       NL             0             0                     8.31062 
    77 x[5,5]       B        69.0405             0               
    78 x[5,6]       NL             0             0                     24.4046 
    79 x[5,7]       NL             0             0                     18.6681 
    80 x[5,8]       NL             0             0                     9.19717 
    81 x[5,9]       NL             0             0                     5.31062 
    82 x[5,10]      B        76.1216             0               
    83 x[5,11]      NL             0             0                     19.3106 
    84 x[5,12]      B        54.8784             0               
    85 x[5,13]      NL             0             0                     28.2001 
    86 x[5,14]      NL             0             0                     1.60647 
    87 x[5,15]      NL             0             0                     14.3106 
    88 x[5,16]      NL             0             0                          23 
    89 x[5,17]      NL             0             0                     13.3106 
    90 x[5,18]      NL             0             0                     13.4046 
    91 x[6,1]       B              0             0               
    92 x[6,2]       NL             0             0                     8.79987 
    93 x[6,3]       B              0             0               
    94 x[6,4]       NL             0             0                     11.1105 
    95 x[6,5]       NL             0             0                      9.1105 
    96 x[6,6]       NL             0             0                     1.20448 
    97 x[6,7]       B              0             0               
    98 x[6,8]       B              0             0               
    99 x[6,9]       NL             0             0                      5.1105 
   100 x[6,10]      NL             0             0                     11.7999 
   101 x[6,11]      NL             0             0                      3.1105 
   102 x[6,12]      NL             0             0                     23.7999 
   103 x[6,13]      B              0             0               
   104 x[6,14]      NL             0             0                     18.4063 
   105 x[6,15]      B              0             0               
   106 x[6,16]      NL             0             0                     22.7999 
   107 x[6,17]      NL             0             0                      4.1105 
   108 x[6,18]      NL             0             0                     19.2045 
   109 x[7,1]       NL             0             0                     22.0662 
   110 x[7,2]       NL             0             0                     22.7555 
   111 x[7,3]       NL             0             0                     6.75554 
   112 x[7,4]       NL             0             0                     9.06616 
   113 x[7,5]       NL             0             0                     8.06616 
   114 x[7,6]       NL             0             0                     25.1601 
   115 x[7,7]       NL             0             0                     11.4236 
   116 x[7,8]       NL             0             0                     22.9527 
   117 x[7,9]       NL             0             0                     25.0662 
   118 x[7,10]      NL             0             0                     11.7555 
   119 x[7,11]      NL             0             0                     24.0662 
   120 x[7,12]      NL             0             0                     12.7555 
   121 x[7,13]      NL             0             0                     1.95567 
   122 x[7,14]      NL             0             0                      25.362 
   123 x[7,15]      NL             0             0                     17.0662 
   124 x[7,16]      NL             0             0                     5.75554 
   125 x[7,17]      NL             0             0                     6.06616 
   126 x[7,18]      NL             0             0                     23.1601 
   127 x[8,1]       B        6.69344             0               
   128 x[8,2]       NL             0             0                     7.68938 
   129 x[8,3]       NL             0             0                     24.6894 
   130 x[8,4]       B              0             0               
   131 x[8,5]       NL             0             0                          16 
   132 x[8,6]       NL             0             0                      25.094 
   133 x[8,7]       NL             0             0                     11.3575 
   134 x[8,8]       NL             0             0                     1.88655 
   135 x[8,9]       NL             0             0                           4 
   136 x[8,10]      NL             0             0                     5.68938 
   137 x[8,11]      B        54.6631             0               
   138 x[8,12]      NL             0             0                     13.6894 
   139 x[8,13]      NL             0             0                      1.8895 
   140 x[8,14]      NL             0             0                     24.2958 
   141 x[8,15]      B        39.6029             0               
   142 x[8,16]      NL             0             0                     15.6894 
   143 x[8,17]      NL             0             0                          12 
   144 x[8,18]      NL             0             0                      27.094 
   145 x[9,1]       NL             0             0                     14.1105 
   146 x[9,2]       NL             0             0                     12.7999 
   147 x[9,3]       NL             0             0                     13.7999 
   148 x[9,4]       NL             0             0                      6.1105 
   149 x[9,5]       NL             0             0                     15.1105 
   150 x[9,6]       NL             0             0                     19.2045 
   151 x[9,7]       B              0             0               
   152 x[9,8]       NL             0             0                      20.997 
   153 x[9,9]       NL             0             0                      5.1105 
   154 x[9,10]      NL             0             0                    0.799873 
   155 x[9,11]      NL             0             0                     19.1105 
   156 x[9,12]      NL             0             0                     13.7999 
   157 x[9,13]      NL             0             0                      28.638 
   158 x[9,14]      NL             0             0                     18.4063 
   159 x[9,15]      NL             0             0                     21.1105 
   160 x[9,16]      NL             0             0                     12.7999 
   161 x[9,17]      NL             0             0                     14.1105 
   162 x[9,18]      NL             0             0                     3.20448 
   163 x[10,1]      NL             0             0                     9.31062 
   164 x[10,2]      NL             0             0                          21 
   165 x[10,3]      B        61.8784             0               
   166 x[10,4]      NL             0             0                     19.3106 
   167 x[10,5]      NL             0             0                     17.3106 
   168 x[10,6]      NL             0             0                     10.4046 
   169 x[10,7]      NL             0             0                     16.6681 
   170 x[10,8]      NL             0             0                     7.19717 
   171 x[10,9]      NL             0             0                     7.31062 
   172 x[10,10]     NL             0             0                          19 
   173 x[10,11]     NL             0             0                     16.3106 
   174 x[10,12]     B        10.1216             0               
   175 x[10,13]     B             99             0               
   176 x[10,14]     NL             0             0                     26.6065 
   177 x[10,15]     NL             0             0                     11.3106 
   178 x[10,16]     B             99             0               
   179 x[10,17]     NL             0             0                     13.3106 
   180 x[10,18]     NL             0             0                     5.40461 
   181 x[11,1]      NL             0             0                     15.1105 
   182 x[11,2]      NL             0             0                     23.7999 
   183 x[11,3]      NL             0             0                     4.79987 
   184 x[11,4]      NL             0             0                      3.1105 
   185 x[11,5]      NL             0             0                     17.1105 
   186 x[11,6]      NL             0             0                     1.20448 
   187 x[11,7]      NL             0             0                     6.46795 
   188 x[11,8]      B             75             0               
   189 x[11,9]      NL             0             0                      7.1105 
   190 x[11,10]     NL             0             0                     11.7999 
   191 x[11,11]     NL             0             0                     19.1105 
   192 x[11,12]     NL             0             0                     7.79987 
   193 x[11,13]     NL             0             0                          11 
   194 x[11,14]     NL             0             0                     9.40634 
   195 x[11,15]     NL             0             0                     18.1105 
   196 x[11,16]     NL             0             0                     13.7999 
   197 x[11,17]     NL             0             0                     10.1105 
   198 x[11,18]     B             94             0               
   199 x[12,1]      NL             0             0                     2.90601 
   200 x[12,2]      NL             0             0                     19.5954 
   201 x[12,3]      NL             0             0                     12.5954 
   202 x[12,4]      NL             0             0                     4.90601 
   203 x[12,5]      NL             0             0                      14.906 
   204 x[12,6]      B              0             0               
   205 x[12,7]      NL             0             0                     16.2635 
   206 x[12,8]      NL             0             0                     8.79256 
   207 x[12,9]      B              0             0               
   208 x[12,10]     NL             0             0                     11.5954 
   209 x[12,11]     NL             0             0                     3.90601 
   210 x[12,12]     NL             0             0                     13.5954 
   211 x[12,13]     NL             0             0                     18.7955 
   212 x[12,14]     NL             0             0                     5.20186 
   213 x[12,15]     NL             0             0                      22.906 
   214 x[12,16]     NL             0             0                     3.59539 
   215 x[12,17]     NL             0             0                      20.906 
   216 x[12,18]     B              0             0               
   217 y[1]         NU             1                           1      -515.707 
   218 y[2]         B              0                           1 
   219 y[3]         B              1                           1 
   220 y[4]         NU             1                           1      -573.696 
   221 y[5]         B       0.885135                           1 
   222 y[6]         B              0                           1 
   223 y[7]         B              0                           1 
   224 y[8]         B       0.557787                           1 
   225 y[9]         B              0                           1 
   226 y[10]        NU             1                           1      -89.2217 
   227 y[11]        B              1                           1 
   228 y[12]        B              0                           1 

Karush-Kuhn-Tucker optimality conditions:

KKT.PE: max.abs.err = 1.82e-12 on row 1
        max.rel.err = 1.52e-13 on row 13
        High quality

KKT.PB: max.abs.err = 5.21e-14 on column 98
        max.rel.err = 5.21e-14 on column 98
        High quality

KKT.DE: max.abs.err = 3.41e-12 on column 228
        max.rel.err = 3.90e-15 on column 216
        High quality

KKT.DB: max.abs.err = 0.00e+00 on row 0
        max.rel.err = 0.00e+00 on row 0
        High quality

End of output
